3
30
7106
[[ 472, 668,   0, 573, 642, 787, 651, 249, 522, 568, 183, 497, 366, 417,  31,  66,  13, 586, 826, 258, 122, 746, 921, 974, 980, 169, 735, 968, 465, 926],
 [ 528, 332,1000, 427, 358, 213, 349, 751, 478, 432, 817, 503, 634, 583, 969, 934, 987, 414, 174, 742, 878, 254,  79,  26,  20, 831, 265,  32, 535,  74],
 [  90,  58,  66,  79,  38,  56,  74,  88,  15,  44,  51,  52,  79,  71,  22,  34,  39,  98,  55,  86,   1,  61,  29,  13,   2,   9,  94,   5,  34,  22]]
[ 21,652, 96,293, 40,687,847,689,387,886,596,722,876,941,484,131,914,165,462,125,638,160,150,429,550,460,518,211,231,852]